row=8;
column=8;
Board=[|1,0,1,0,0,1,0,0|0,1,0,0,0,1,0,1|0,0,0,1,0,0,0,0|0,0,0,0,0,0,0,0|1,0,0,0,0,1,0,1|0,0,1,0,0,0,0,0|0,0,0,0,1,0,1,0|0,0,0,0,0,0,0,0|];
right = [2,1,3,1,0,3,1,2];
bottom = [1,2,1,2,1,2,2,2];
